NAME          COPTPROB
OBJSENSE
  MIN
ROWS
 N  __OBJ___
 L  C10     
 L  C25     
 L  C27     
 L  C56     
 L  C61     
 L  C78     
 L  C80     
 L  C100    
 L  C111    
 L  C115    
 L  C117    
 L  C145    
 L  C159    
 L  C173    
 L  C176    
 L  C188    
COLUMNS
    MARKER    'MARKER'                 'INTORG'
    x6        __OBJ___  296
    x6        C78       -1
    x6        C188      -1
    x40       __OBJ___  306
    x40       C10       -1
    x40       C56       -1
    x93       __OBJ___  71
    x93       C111      -1
    x118      __OBJ___  146
    x118      C10       -1
    x118      C159      -1
    x173      __OBJ___  214
    x173      C25       -1
    x173      C56       -1
    x174      __OBJ___  239
    x174      C80       -1
    x174      C117      -1
    x243      __OBJ___  417
    x243      C78       -1
    x243      C176      -1
    x375      __OBJ___  216
    x375      C115      -1
    x375      C176      -1
    x392      __OBJ___  194
    x392      C145      -1
    x392      C173      -1
    x479      __OBJ___  233
    x479      C61       -1
    x479      C111      -1
    x517      __OBJ___  68
    x517      C145      -1
    x517      C188      -1
    x536      __OBJ___  45
    x536      C80       -1
    x589      __OBJ___  81
    x589      C25       -1
    x589      C27       -1
    x597      __OBJ___  67
    x597      C27       -1
    x602      __OBJ___  191
    x602      C27       -1
    x602      C56       -1
    x607      __OBJ___  164
    x607      C61       -1
    x607      C100      -1
    x645      __OBJ___  418
    x645      C56       -1
    x645      C117      -1
    x684      __OBJ___  207
    x684      C80       -1
    x684      C115      -1
    x755      __OBJ___  5
    x755      C100      -1
    x755      C159      -1
    x763      __OBJ___  230
    x763      C111      -1
    x763      C173      -1
    MARKER    'MARKER'                 'INTEND'
RHS
    RHS       __OBJ___  -16720
    RHS       C10       -1
    RHS       C25       -1
    RHS       C27       -1
    RHS       C56       -1
    RHS       C61       -1
    RHS       C78       -1
    RHS       C80       -1
    RHS       C100      -1
    RHS       C111      -1
    RHS       C115      -1
    RHS       C117      -1
    RHS       C145      -1
    RHS       C159      -1
    RHS       C173      -1
    RHS       C176      -1
    RHS       C188      -1
BOUNDS
 UP BOUND     x6        1
 UP BOUND     x40       1
 UP BOUND     x93       1
 UP BOUND     x118      1
 UP BOUND     x173      1
 UP BOUND     x174      1
 UP BOUND     x243      1
 UP BOUND     x375      1
 UP BOUND     x392      1
 UP BOUND     x479      1
 UP BOUND     x517      1
 UP BOUND     x536      1
 UP BOUND     x589      1
 UP BOUND     x597      1
 UP BOUND     x602      1
 UP BOUND     x607      1
 UP BOUND     x645      1
 UP BOUND     x684      1
 UP BOUND     x755      1
 UP BOUND     x763      1
ENDATA
